networks/rf_158_4929/standard/lower/rf_158_4929-lower.txt
Number of groups: 107
Flow 29: {1 4 0} {4 6 0} 
Flow 96: {2 33 0} {33 31 0} {31 32 0} {32 111 0} 
Flow 185: {3 48 0} {48 127 0} 
Flow 240: {4 3 0} {3 47 0} {47 50 0} {50 52 0} {52 131 0} 
Flow 301: {43 49 0} {49 50 0} {50 54 0} {54 133 0} 
Flow 369: {6 4 0} {4 7 0} {7 46 0} {46 125 0} 
Flow 426: {5 29 0} 
Flow 430: {46 33 0} {33 112 0} 
Flow 660: {11 8 0} {8 13 0} {13 92 0} 
Flow 668: {11 21 0} {21 23 0} 
Flow 708: {11 9 0} {9 69 0} {69 148 0} 
Flow 720: {8 14 0} {14 5 0} 
Flow 800: {13 8 0} {8 11 0} 
Flow 807: {13 12 0} {12 24 0} {24 103 0} 
Flow 809: {13 14 0} {14 29 0} {29 108 0} 
Flow 999: {17 14 0} {14 13 0} 
Flow 1009: {17 26 0} 
Flow 1014: {17 5 0} 
Flow 1022: {14 8 0} {8 12 0} {12 22 0} {22 38 0} {38 39 0} {39 118 0} 
Flow 1042: {52 62 0} {62 141 0} 
Flow 1154: {28 27 0} {27 106 0} 
Flow 1205: {73 72 0} {72 9 0} {9 88 0} 
Flow 1238: {20 10 0} {10 53 0} {53 74 0} {74 67 0} {67 146 0} 
Flow 1415: {23 12 0} {12 25 0} {25 104 0} 
Flow 1428: {23 38 0} {38 117 0} 
Flow 1444: {23 21 0} {21 15 0} {15 57 0} {57 136 0} 
Flow 1471: {24 12 0} {12 8 0} {8 87 0} 
Flow 1480: {24 21 0} {21 22 0} {22 101 0} 
Flow 1578: {18 10 0} {10 73 0} {73 152 0} 
Flow 1589: {26 5 0} {5 84 0} 
Flow 1598: {26 14 0} {14 93 0} 
Flow 1600: {26 17 0} 
Flow 1617: {36 35 0} {35 114 0} 
Flow 1677: {27 28 0} {28 68 0} {68 147 0} 
Flow 1701: {58 60 0} {60 15 0} {15 21 0} {21 24 0} 
Flow 1774: {29 14 0} {14 30 0} {30 109 0} 
Flow 1787: {29 5 0} {5 43 0} {43 122 0} 
Flow 1805: {1 2 0} {2 64 0} {64 63 0} 
Flow 1862: {30 14 0} {14 44 0} {44 123 0} 
Flow 1901: {35 36 0} {36 7 0} 
Flow 1936: {31 33 0} {33 47 0} {47 67 0} {67 77 0} {77 51 0} {51 130 0} 
Flow 1954: {32 3 0} {3 1 0} {1 80 0} 
Flow 2038: {33 2 0} {2 48 0} {48 45 0} {45 124 0} 
Flow 2124: {34 6 0} {6 48 0} {48 67 0} {67 66 0} 
Flow 2142: {37 6 0} 
Flow 2149: {7 4 0} {4 1 0} 
Flow 2194: {7 48 0} {48 64 0} {64 143 0} 
Flow 2195: {37 35 0} {35 31 0} {31 34 0} {34 65 0} {65 144 0} 
Flow 2200: {37 7 0} {7 42 0} {42 70 0} {70 149 0} 
Flow 2228: {38 23 0} {23 102 0} 
Flow 2290: {39 38 0} {38 22 0} {22 21 0} {21 11 0} {11 90 0} 
Flow 2292: {22 12 0} {12 13 0} 
Flow 2346: {19 18 0} {18 20 0} {20 71 0} 
Flow 2376: {40 41 0} {41 43 0} {43 5 0} {5 26 0} {26 105 0} 
Flow 2402: {5 14 0} {14 68 0} {68 28 0} {28 58 0} {58 137 0} 
Flow 2422: {41 40 0} {40 42 0} {42 47 0} {47 2 0} {2 81 0} 
Flow 2637: {44 14 0} {14 26 0} 
Flow 2641: {44 5 0} {5 1 0} {1 3 0} {3 32 0} {32 31 0} {31 110 0} 
Flow 2716: {45 32 0} {32 6 0} {6 42 0} {42 121 0} 
Flow 2748: {45 48 0} {48 2 0} {2 47 0} {47 79 0} {79 158 0} 
Flow 3131: {10 18 0} {18 97 0} 
Flow 3165: {51 53 0} {53 54 0} 
Flow 3205: {50 53 0} {53 10 0} {10 20 0} {20 99 0} 
Flow 3321: {54 50 0} {50 47 0} {47 64 0} {64 6 0} {6 85 0} 
Flow 3322: {47 33 0} {33 46 0} {46 7 0} {7 86 0} 
Flow 3379: {54 53 0} {53 75 0} {75 154 0} 
Flow 3405: {55 9 0} {9 12 0} {12 23 0} 
Flow 3440: {6 64 0} {64 62 0} {62 61 0} {61 140 0} 
Flow 3468: {56 21 0} {21 12 0} {12 91 0} 
Flow 3509: {56 15 0} {15 59 0} {59 138 0} 
Flow 3521: {12 9 0} {9 72 0} {72 151 0} 
Flow 3542: {57 15 0} {15 94 0} 
Flow 3676: {6 32 0} {32 45 0} 
Flow 3703: {59 15 0} {15 8 0} {8 10 0} 
Flow 3732: {60 58 0} {58 28 0} {28 107 0} 
Flow 3812: {61 62 0} {62 64 0} {64 47 0} {47 42 0} {42 40 0} {40 119 0} 
Flow 3820: {62 52 0} {52 50 0} {50 129 0} 
Flow 3867: {63 64 0} {64 2 0} {2 1 0} {1 5 0} {5 17 0} 
Flow 3887: {63 65 0} {65 34 0} {34 31 0} {31 35 0} {35 37 0} 
Flow 3947: {64 48 0} {48 7 0} {7 37 0} {37 116 0} 
Flow 3997: {65 45 0} {45 70 0} 
Flow 4057: {66 51 0} {51 76 0} {76 155 0} 
Flow 4060: {66 67 0} {67 62 0} {62 79 0} 
Flow 4103: {67 74 0} {74 53 0} {53 132 0} 
Flow 4153: {68 14 0} {14 49 0} {49 43 0} {43 41 0} {41 120 0} 
Flow 4194: {69 9 0} {9 11 0} 
Flow 4216: {69 55 0} {55 25 0} {25 19 0} {19 42 0} {42 7 0} {7 36 0} {36 115 0} 
Flow 4217: {42 6 0} {6 37 0} 
Flow 4289: {5 44 0} 
Flow 4304: {70 45 0} {45 65 0} {65 63 0} {63 142 0} 
Flow 4310: {70 42 0} {42 19 0} {19 25 0} {25 55 0} {55 69 0} 
Flow 4325: {71 10 0} {10 89 0} 
Flow 4332: {71 20 0} {20 18 0} {18 19 0} {19 98 0} 
Flow 4334: {25 12 0} {12 21 0} {21 100 0} 
Flow 4444: {72 73 0} {73 10 0} {10 71 0} {71 150 0} 
Flow 4503: {9 55 0} {55 134 0} 
Flow 4597: {74 51 0} {51 78 0} {78 157 0} 
Flow 4654: {10 8 0} {8 15 0} {15 60 0} {60 139 0} 
Flow 4660: {75 53 0} {53 51 0} {51 66 0} {66 145 0} 
Flow 4674: {48 3 0} {3 82 0} 
Flow 4682: {53 50 0} {50 49 0} {49 14 0} {14 17 0} {17 96 0} 
Flow 4699: {76 78 0} {78 67 0} {67 47 0} {47 126 0} 
Flow 4711: {76 51 0} {51 77 0} {77 156 0} 
Flow 4745: {77 67 0} {67 48 0} {48 6 0} {6 34 0} {34 113 0} 
Flow 4852: {78 51 0} {51 74 0} {74 153 0} 
Flow 4860: {79 47 0} {47 3 0} {3 4 0} {4 83 0} 
Flow 4927: {79 62 0} {62 67 0} {67 78 0} {78 76 0} 
Time taken running everything: 49 seconds
