networks/rf_158_4929/standard/lower/rf_158_4929-lower.sol
<?xml version = "1.0" encoding="UTF-8" standalone="yes"?>
<CPLEXSolution version="1.2">
 <header
   problemName="networks/rf_158_4929/rf_158_4929-lower.lp"
   solutionName="incumbent"
   solutionIndex="-1"
   objectiveValue="107"
   solutionTypeValue="3"
   solutionTypeString="primal"
   solutionStatusValue="101"
   solutionStatusString="integer optimal solution"
   solutionMethodString="mip"
   primalFeasible="1"
   dualFeasible="1"
   MIPNodes="0"
   MIPIterations="121"
   writeLevel="3"/>
 <quality
   epInt="1.0000000000000001e-05"
   epRHS="9.9999999999999995e-07"
   maxIntInfeas="0"
   maxPrimalInfeas="0"
   maxX="1"
   maxSlack="1"/>
 <variables>
  <variable name="Y(29,4)" index="4315" value="1"/>
  <variable name="Y(96,32)" index="14660" value="1"/>
  <variable name="Y(185,48)" index="28382" value="1"/>
  <variable name="Y(240,52)" index="36856" value="1"/>
  <variable name="Y(301,54)" index="46252" value="1"/>
  <variable name="Y(369,46)" index="56716" value="1"/>
  <variable name="Y(426,5)" index="65454" value="1"/>
  <variable name="Y(430,33)" index="66097" value="1"/>
  <variable name="Y(660,13)" index="101498" value="1"/>
  <variable name="Y(668,21)" index="102737" value="1"/>
  <variable name="Y(708,69)" index="108945" value="1"/>
  <variable name="Y(720,14)" index="110739" value="1"/>
  <variable name="Y(800,8)" index="123053" value="1"/>
  <variable name="Y(807,24)" index="124146" value="1"/>
  <variable name="Y(809,29)" index="124459" value="1"/>
  <variable name="Y(999,14)" index="153705" value="1"/>
  <variable name="Y(1009,17)" index="155247" value="1"/>
  <variable name="Y(1014,17)" index="156017" value="1"/>
  <variable name="Y(1022,39)" index="157271" value="1"/>
  <variable name="Y(1042,62)" index="160374" value="1"/>
  <variable name="Y(1154,27)" index="177587" value="1"/>
  <variable name="Y(1205,9)" index="185424" value="1"/>
  <variable name="Y(1238,67)" index="190563" value="1"/>
  <variable name="Y(1415,25)" index="217779" value="1"/>
  <variable name="Y(1428,38)" index="219794" value="1"/>
  <variable name="Y(1444,57)" index="222277" value="1"/>
  <variable name="Y(1471,8)" index="226387" value="1"/>
  <variable name="Y(1480,22)" index="227786" value="1"/>
  <variable name="Y(1578,73)" index="242929" value="1"/>
  <variable name="Y(1589,5)" index="244556" value="1"/>
  <variable name="Y(1598,14)" index="245951" value="1"/>
  <variable name="Y(1600,26)" index="246270" value="1"/>
  <variable name="Y(1617,35)" index="248897" value="1"/>
  <variable name="Y(1677,68)" index="258170" value="1"/>
  <variable name="Y(1701,21)" index="261819" value="1"/>
  <variable name="Y(1774,30)" index="273070" value="1"/>
  <variable name="Y(1787,43)" index="275085" value="1"/>
  <variable name="Y(1805,64)" index="277878" value="1"/>
  <variable name="Y(1862,44)" index="286636" value="1"/>
  <variable name="Y(1901,36)" index="292634" value="1"/>
  <variable name="Y(1936,51)" index="298039" value="1"/>
  <variable name="Y(1954,1)" index="300762" value="1"/>
  <variable name="Y(2038,45)" index="313741" value="1"/>
  <variable name="Y(2124,67)" index="327007" value="1"/>
  <variable name="Y(2142,37)" index="329749" value="1"/>
  <variable name="Y(2149,4)" index="330795" value="1"/>
  <variable name="Y(2194,64)" index="337784" value="1"/>
  <variable name="Y(2195,65)" index="337939" value="1"/>
  <variable name="Y(2200,70)" index="338714" value="1"/>
  <variable name="Y(2228,23)" index="342979" value="1"/>
  <variable name="Y(2290,11)" index="352516" value="1"/>
  <variable name="Y(2292,12)" index="352825" value="1"/>
  <variable name="Y(2346,20)" index="361148" value="1"/>
  <variable name="Y(2376,26)" index="365774" value="1"/>
  <variable name="Y(2402,58)" index="369810" value="1"/>
  <variable name="Y(2422,2)" index="372835" value="1"/>
  <variable name="Y(2637,14)" index="405957" value="1"/>
  <variable name="Y(2641,31)" index="406589" value="1"/>
  <variable name="Y(2716,42)" index="418150" value="1"/>
  <variable name="Y(2748,79)" index="423115" value="1"/>
  <variable name="Y(3131,18)" index="482036" value="1"/>
  <variable name="Y(3165,53)" index="487307" value="1"/>
  <variable name="Y(3205,20)" index="493434" value="1"/>
  <variable name="Y(3321,6)" index="511285" value="1"/>
  <variable name="Y(3322,7)" index="511440" value="1"/>
  <variable name="Y(3379,75)" index="520285" value="1"/>
  <variable name="Y(3405,12)" index="524227" value="1"/>
  <variable name="Y(3440,61)" index="529665" value="1"/>
  <variable name="Y(3468,12)" index="533929" value="1"/>
  <variable name="Y(3509,59)" index="540289" value="1"/>
  <variable name="Y(3521,72)" index="542150" value="1"/>
  <variable name="Y(3542,15)" index="545328" value="1"/>
  <variable name="Y(3676,32)" index="565980" value="1"/>
  <variable name="Y(3703,8)" index="570115" value="1"/>
  <variable name="Y(3732,28)" index="574600" value="1"/>
  <variable name="Y(3812,40)" index="586932" value="1"/>
  <variable name="Y(3820,50)" index="588174" value="1"/>
  <variable name="Y(3867,5)" index="595368" value="1"/>
  <variable name="Y(3887,35)" index="598477" value="1"/>
  <variable name="Y(3947,37)" index="607719" value="1"/>
  <variable name="Y(3997,45)" index="615427" value="1"/>
  <variable name="Y(4057,76)" index="624698" value="1"/>
  <variable name="Y(4060,62)" index="625146" value="1"/>
  <variable name="Y(4103,53)" index="631759" value="1"/>
  <variable name="Y(4153,41)" index="639447" value="1"/>
  <variable name="Y(4194,9)" index="645730" value="1"/>
  <variable name="Y(4216,36)" index="649144" value="1"/>
  <variable name="Y(4217,6)" index="649269" value="1"/>
  <variable name="Y(4289,5)" index="660356" value="1"/>
  <variable name="Y(4304,63)" index="662723" value="1"/>
  <variable name="Y(4310,55)" index="663639" value="1"/>
  <variable name="Y(4325,10)" index="665905" value="1"/>
  <variable name="Y(4332,19)" index="666991" value="1"/>
  <variable name="Y(4334,21)" index="667301" value="1"/>
  <variable name="Y(4444,71)" index="684291" value="1"/>
  <variable name="Y(4503,55)" index="693361" value="1"/>
  <variable name="Y(4597,78)" index="707860" value="1"/>
  <variable name="Y(4654,60)" index="716620" value="1"/>
  <variable name="Y(4660,66)" index="717550" value="1"/>
  <variable name="Y(4674,3)" index="719644" value="1"/>
  <variable name="Y(4682,17)" index="720889" value="1"/>
  <variable name="Y(4699,47)" index="723537" value="1"/>
  <variable name="Y(4711,77)" index="725415" value="1"/>
  <variable name="Y(4745,34)" index="730608" value="1"/>
  <variable name="Y(4852,74)" index="747126" value="1"/>
  <variable name="Y(4860,4)" index="748289" value="1"/>
  <variable name="Y(4927,78)" index="758680" value="1"/>
  <variable name="X(1,2,1805)" index="760870" value="1"/>
  <variable name="X(1,3,2641)" index="766635" value="1"/>
  <variable name="X(1,4,29)" index="768952" value="1"/>
  <variable name="X(1,5,3867)" index="777719" value="1"/>
  <variable name="X(1,80,1954)" index="780735" value="1"/>
  <variable name="X(2,1,3867)" index="787577" value="1"/>
  <variable name="X(2,33,96)" index="788735" value="1"/>
  <variable name="X(2,47,2748)" index="796316" value="1"/>
  <variable name="X(2,48,2038)" index="800535" value="1"/>
  <variable name="X(2,64,1805)" index="805231" value="1"/>
  <variable name="X(2,81,2422)" index="810777" value="1"/>
  <variable name="X(3,1,1954)" index="815238" value="1"/>
  <variable name="X(3,4,4860)" index="823073" value="1"/>
  <variable name="X(3,32,2641)" index="825783" value="1"/>
  <variable name="X(3,47,240)" index="828311" value="1"/>
  <variable name="X(3,48,185)" index="833185" value="1"/>
  <variable name="X(3,82,4674)" index="842603" value="1"/>
  <variable name="X(4,1,2149)" index="845007" value="1"/>
  <variable name="X(4,3,240)" index="848027" value="1"/>
  <variable name="X(4,6,29)" index="852745" value="1"/>
  <variable name="X(4,7,369)" index="858014" value="1"/>
  <variable name="X(4,83,4860)" index="867434" value="1"/>
  <variable name="X(5,1,2641)" index="870144" value="1"/>
  <variable name="X(5,14,2402)" index="874834" value="1"/>
  <variable name="X(5,17,3867)" index="881228" value="1"/>
  <variable name="X(5,26,2376)" index="884666" value="1"/>
  <variable name="X(5,29,426)" index="887645" value="1"/>
  <variable name="X(5,43,1787)" index="893935" value="1"/>
  <variable name="X(5,44,4289)" index="901366" value="1"/>
  <variable name="X(5,84,1589)" index="903595" value="1"/>
  <variable name="X(6,4,369)" index="907304" value="1"/>
  <variable name="X(6,32,3676)" index="915540" value="1"/>
  <variable name="X(6,34,4745)" index="921538" value="1"/>
  <variable name="X(6,37,4217)" index="925939" value="1"/>
  <variable name="X(6,42,2716)" index="929367" value="1"/>
  <variable name="X(6,48,2124)" index="933704" value="1"/>
  <variable name="X(6,64,3440)" index="939949" value="1"/>
  <variable name="X(6,85,3321)" index="944759" value="1"/>
  <variable name="X(7,4,2149)" index="948516" value="1"/>
  <variable name="X(7,36,4216)" index="955512" value="1"/>
  <variable name="X(7,37,3947)" index="960172" value="1"/>
  <variable name="X(7,42,2200)" index="963354" value="1"/>
  <variable name="X(7,46,369)" index="966452" value="1"/>
  <variable name="X(7,48,2194)" index="973206" value="1"/>
  <variable name="X(7,86,3322)" index="979263" value="1"/>
  <variable name="X(8,10,3703)" index="984573" value="1"/>
  <variable name="X(8,11,800)" index="986599" value="1"/>
  <variable name="X(8,12,1022)" index="991750" value="1"/>
  <variable name="X(8,13,660)" index="996317" value="1"/>
  <variable name="X(8,14,720)" index="1001306" value="1"/>
  <variable name="X(8,15,4654)" index="1010169" value="1"/>
  <variable name="X(8,87,1471)" index="1011915" value="1"/>
  <variable name="X(9,11,4194)" index="1019567" value="1"/>
  <variable name="X(9,12,3405)" index="1023707" value="1"/>
  <variable name="X(9,55,4503)" index="1029734" value="1"/>
  <variable name="X(9,69,708)" index="1030868" value="1"/>
  <variable name="X(9,72,3521)" index="1038610" value="1"/>
  <variable name="X(9,88,1205)" index="1041223" value="1"/>
  <variable name="X(10,8,4654)" index="1049601" value="1"/>
  <variable name="X(10,18,3131)" index="1053007" value="1"/>
  <variable name="X(10,20,3205)" index="1058010" value="1"/>
  <variable name="X(10,53,1238)" index="1060972" value="1"/>
  <variable name="X(10,71,4444)" index="1069107" value="1"/>
  <variable name="X(10,73,1578)" index="1071170" value="1"/>
  <variable name="X(10,89,4325)" index="1078846" value="1"/>
  <variable name="X(11,8,660)" index="1080110" value="1"/>
  <variable name="X(11,9,708)" index="1085087" value="1"/>
  <variable name="X(11,21,668)" index="1089976" value="1"/>
  <variable name="X(11,90,2290)" index="1096527" value="1"/>
  <variable name="X(12,8,1471)" index="1100637" value="1"/>
  <variable name="X(12,9,3521)" index="1107616" value="1"/>
  <variable name="X(12,13,2292)" index="1111316" value="1"/>
  <variable name="X(12,21,4334)" index="1118287" value="1"/>
  <variable name="X(12,22,1022)" index="1119904" value="1"/>
  <variable name="X(12,23,3405)" index="1127216" value="1"/>
  <variable name="X(12,24,807)" index="1129547" value="1"/>
  <variable name="X(12,25,1415)" index="1135084" value="1"/>
  <variable name="X(12,91,3468)" index="1142066" value="1"/>
  <variable name="X(13,8,800)" index="1144327" value="1"/>
  <variable name="X(13,12,807)" index="1149263" value="1"/>
  <variable name="X(13,14,809)" index="1154194" value="1"/>
  <variable name="X(13,92,660)" index="1158974" value="1"/>
  <variable name="X(14,5,720)" index="1163963" value="1"/>
  <variable name="X(14,8,1022)" index="1169194" value="1"/>
  <variable name="X(14,13,999)" index="1174100" value="1"/>
  <variable name="X(14,17,4682)" index="1182712" value="1"/>
  <variable name="X(14,26,2637)" index="1185596" value="1"/>
  <variable name="X(14,29,809)" index="1188697" value="1"/>
  <variable name="X(14,30,1774)" index="1194591" value="1"/>
  <variable name="X(14,44,1862)" index="1199608" value="1"/>
  <variable name="X(14,49,4153)" index="1206828" value="1"/>
  <variable name="X(14,68,2402)" index="1210006" value="1"/>
  <variable name="X(14,93,1598)" index="1214131" value="1"/>
  <variable name="X(15,8,3703)" index="1221165" value="1"/>
  <variable name="X(15,21,1701)" index="1224092" value="1"/>
  <variable name="X(15,57,1444)" index="1228764" value="1"/>
  <variable name="X(15,59,3509)" index="1235758" value="1"/>
  <variable name="X(15,60,4654)" index="1241832" value="1"/>
  <variable name="X(15,94,3542)" index="1245649" value="1"/>
  <variable name="X(17,5,1014)" index="1248050" value="1"/>
  <variable name="X(17,14,999)" index="1252964" value="1"/>
  <variable name="X(17,26,1009)" index="1257903" value="1"/>
  <variable name="X(17,96,4682)" index="1266505" value="1"/>
  <variable name="X(18,10,1578)" index="1268330" value="1"/>
  <variable name="X(18,19,4332)" index="1276013" value="1"/>
  <variable name="X(18,20,2346)" index="1278956" value="1"/>
  <variable name="X(18,97,3131)" index="1284670" value="1"/>
  <variable name="X(19,18,2346)" index="1288814" value="1"/>
  <variable name="X(19,25,4310)" index="1295707" value="1"/>
  <variable name="X(19,42,4216)" index="1300542" value="1"/>
  <variable name="X(19,98,4332)" index="1305587" value="1"/>
  <variable name="X(20,10,1238)" index="1307422" value="1"/>
  <variable name="X(20,18,4332)" index="1315445" value="1"/>
  <variable name="X(20,71,2346)" index="1318388" value="1"/>
  <variable name="X(20,99,3205)" index="1324176" value="1"/>
  <variable name="X(21,11,2290)" index="1328190" value="1"/>
  <variable name="X(21,12,3468)" index="1334297" value="1"/>
  <variable name="X(21,15,1444)" index="1337202" value="1"/>
  <variable name="X(21,22,1480)" index="1342167" value="1"/>
  <variable name="X(21,23,668)" index="1346284" value="1"/>
  <variable name="X(21,24,1701)" index="1352246" value="1"/>
  <variable name="X(21,100,4334)" index="1359808" value="1"/>
  <variable name="X(22,12,2292)" index="1362695" value="1"/>
  <variable name="X(22,21,2290)" index="1367622" value="1"/>
  <variable name="X(22,38,1022)" index="1371283" value="1"/>
  <variable name="X(22,101,1480)" index="1376670" value="1"/>
  <variable name="X(23,12,1415)" index="1381534" value="1"/>
  <variable name="X(23,21,1444)" index="1386492" value="1"/>
  <variable name="X(23,38,1428)" index="1391405" value="1"/>
  <variable name="X(23,102,2228)" index="1397134" value="1"/>
  <variable name="X(24,12,1471)" index="1401306" value="1"/>
  <variable name="X(24,21,1480)" index="1406244" value="1"/>
  <variable name="X(24,103,807)" index="1410500" value="1"/>
  <variable name="X(25,12,4334)" index="1418956" value="1"/>
  <variable name="X(25,19,4216)" index="1423767" value="1"/>
  <variable name="X(25,55,4310)" index="1428790" value="1"/>
  <variable name="X(25,104,1415)" index="1430824" value="1"/>
  <variable name="X(26,5,1589)" index="1435927" value="1"/>
  <variable name="X(26,14,1598)" index="1440865" value="1"/>
  <variable name="X(26,17,1600)" index="1445796" value="1"/>
  <variable name="X(26,105,2376)" index="1451501" value="1"/>
  <variable name="X(27,28,1677)" index="1455731" value="1"/>
  <variable name="X(27,106,1154)" index="1460137" value="1"/>
  <variable name="X(28,27,1154)" index="1465066" value="1"/>
  <variable name="X(28,58,2402)" index="1471243" value="1"/>
  <variable name="X(28,68,1677)" index="1475447" value="1"/>
  <variable name="X(28,107,3732)" index="1482431" value="1"/>
  <variable name="X(29,5,1787)" index="1485415" value="1"/>
  <variable name="X(29,14,1774)" index="1490331" value="1"/>
  <variable name="X(29,108,809)" index="1494295" value="1"/>
  <variable name="X(30,14,1862)" index="1500277" value="1"/>
  <variable name="X(30,109,1774)" index="1505118" value="1"/>
  <variable name="X(31,32,96)" index="1508369" value="1"/>
  <variable name="X(31,33,1936)" index="1515138" value="1"/>
  <variable name="X(31,34,2195)" index="1520326" value="1"/>
  <variable name="X(31,35,3887)" index="1526947" value="1"/>
  <variable name="X(31,110,2641)" index="1530630" value="1"/>
  <variable name="X(32,3,1954)" index="1534872" value="1"/>
  <variable name="X(32,6,2716)" index="1540563" value="1"/>
  <variable name="X(32,31,2641)" index="1545417" value="1"/>
  <variable name="X(32,45,3676)" index="1551381" value="1"/>
  <variable name="X(32,111,96)" index="1552730" value="1"/>
  <variable name="X(33,2,2038)" index="1559601" value="1"/>
  <variable name="X(33,31,96)" index="1562588" value="1"/>
  <variable name="X(33,46,3322)" index="1570743" value="1"/>
  <variable name="X(33,47,1936)" index="1574286" value="1"/>
  <variable name="X(33,112,430)" index="1577709" value="1"/>
  <variable name="X(34,6,2124)" index="1584332" value="1"/>
  <variable name="X(34,31,3887)" index="1591024" value="1"/>
  <variable name="X(34,65,2195)" index="1594261" value="1"/>
  <variable name="X(34,113,4745)" index="1601740" value="1"/>
  <variable name="X(35,31,2195)" index="1604119" value="1"/>
  <variable name="X(35,36,1901)" index="1608754" value="1"/>
  <variable name="X(35,37,3887)" index="1615669" value="1"/>
  <variable name="X(35,114,1617)" index="1618328" value="1"/>
  <variable name="X(36,7,1901)" index="1623541" value="1"/>
  <variable name="X(36,35,1617)" index="1628186" value="1"/>
  <variable name="X(36,115,4216)" index="1635714" value="1"/>
  <variable name="X(37,6,2142)" index="1638569" value="1"/>
  <variable name="X(37,7,2200)" index="1643556" value="1"/>
  <variable name="X(37,35,2195)" index="1648480" value="1"/>
  <variable name="X(37,116,3947)" index="1655161" value="1"/>
  <variable name="X(38,22,2290)" index="1658433" value="1"/>
  <variable name="X(38,23,2228)" index="1663300" value="1"/>
  <variable name="X(38,39,1022)" index="1667023" value="1"/>
  <variable name="X(38,117,1428)" index="1672358" value="1"/>
  <variable name="X(39,38,2290)" index="1678149" value="1"/>
  <variable name="X(39,118,1022)" index="1681810" value="1"/>
  <variable name="X(40,41,2376)" index="1688093" value="1"/>
  <variable name="X(40,42,2422)" index="1693068" value="1"/>
  <variable name="X(40,119,3812)" index="1699387" value="1"/>
  <variable name="X(41,40,2422)" index="1702926" value="1"/>
  <variable name="X(41,43,2376)" index="1707809" value="1"/>
  <variable name="X(41,120,4153)" index="1714515" value="1"/>
  <variable name="X(42,6,4217)" index="1719508" value="1"/>
  <variable name="X(42,7,4216)" index="1724436" value="1"/>
  <variable name="X(42,19,4310)" index="1729459" value="1"/>
  <variable name="X(42,40,3812)" index="1733890" value="1"/>
  <variable name="X(42,47,2422)" index="1737429" value="1"/>
  <variable name="X(42,70,2200)" index="1742136" value="1"/>
  <variable name="X(42,121,2716)" index="1747581" value="1"/>
  <variable name="X(43,5,2376)" index="1752170" value="1"/>
  <variable name="X(43,41,4153)" index="1758876" value="1"/>
  <variable name="X(43,49,301)" index="1759953" value="1"/>
  <variable name="X(43,122,1787)" index="1766368" value="1"/>
  <variable name="X(44,5,2641)" index="1772151" value="1"/>
  <variable name="X(44,14,2637)" index="1777076" value="1"/>
  <variable name="X(44,123,1862)" index="1781230" value="1"/>
  <variable name="X(45,32,2716)" index="1787013" value="1"/>
  <variable name="X(45,48,2748)" index="1791974" value="1"/>
  <variable name="X(45,65,4304)" index="1798459" value="1"/>
  <variable name="X(45,70,3997)" index="1803081" value="1"/>
  <variable name="X(45,124,2038)" index="1806051" value="1"/>
  <variable name="X(46,7,3322)" index="1812264" value="1"/>
  <variable name="X(46,33,430)" index="1814301" value="1"/>
  <variable name="X(46,125,369)" index="1819169" value="1"/>
  <variable name="X(47,2,2422)" index="1826151" value="1"/>
  <variable name="X(47,3,4860)" index="1833518" value="1"/>
  <variable name="X(47,33,3322)" index="1836909" value="1"/>
  <variable name="X(47,42,3812)" index="1842328" value="1"/>
  <variable name="X(47,50,240)" index="1843685" value="1"/>
  <variable name="X(47,64,3321)" index="1851695" value="1"/>
  <variable name="X(47,67,1936)" index="1855239" value="1"/>
  <variable name="X(47,79,2748)" index="1860980" value="1"/>
  <variable name="X(47,126,4699)" index="1867860" value="1"/>
  <variable name="X(48,2,2748)" index="1870838" value="1"/>
  <variable name="X(48,3,4674)" index="1877693" value="1"/>
  <variable name="X(48,6,4745)" index="1882693" value="1"/>
  <variable name="X(48,7,3947)" index="1886824" value="1"/>
  <variable name="X(48,45,2038)" index="1889844" value="1"/>
  <variable name="X(48,64,2194)" index="1894929" value="1"/>
  <variable name="X(48,67,2124)" index="1899788" value="1"/>
  <variable name="X(48,127,185)" index="1902778" value="1"/>
  <variable name="X(49,14,4682)" index="1912204" value="1"/>
  <variable name="X(49,43,4153)" index="1916604" value="1"/>
  <variable name="X(49,50,301)" index="1917681" value="1"/>
  <variable name="X(50,47,3321)" index="1925630" value="1"/>
  <variable name="X(50,49,4682)" index="1931920" value="1"/>
  <variable name="X(50,52,240)" index="1932407" value="1"/>
  <variable name="X(50,53,3205)" index="1940301" value="1"/>
  <variable name="X(50,54,301)" index="1942326" value="1"/>
  <variable name="X(50,129,3820)" index="1950774" value="1"/>
  <variable name="X(51,53,3165)" index="1955048" value="1"/>
  <variable name="X(51,66,4660)" index="1961472" value="1"/>
  <variable name="X(51,74,4852)" index="1966593" value="1"/>
  <variable name="X(51,76,4057)" index="1970727" value="1"/>
  <variable name="X(51,77,4711)" index="1976310" value="1"/>
  <variable name="X(51,78,4597)" index="1981125" value="1"/>
  <variable name="X(51,130,1936)" index="1983393" value="1"/>
  <variable name="X(52,50,3820)" index="1990206" value="1"/>
  <variable name="X(52,62,1042)" index="1992357" value="1"/>
  <variable name="X(52,131,240)" index="1996484" value="1"/>
  <variable name="X(53,10,3205)" index="2004378" value="1"/>
  <variable name="X(53,50,4682)" index="2010784" value="1"/>
  <variable name="X(53,51,4660)" index="2015691" value="1"/>
  <variable name="X(53,54,3165)" index="2019125" value="1"/>
  <variable name="X(53,74,1238)" index="2022127" value="1"/>
  <variable name="X(53,75,3379)" index="2029197" value="1"/>
  <variable name="X(53,132,4103)" index="2034850" value="1"/>
  <variable name="X(54,50,3321)" index="2038997" value="1"/>
  <variable name="X(54,53,3379)" index="2043984" value="1"/>
  <variable name="X(54,133,301)" index="2045835" value="1"/>
  <variable name="X(55,9,3405)" index="2053868" value="1"/>
  <variable name="X(55,25,4216)" index="2059608" value="1"/>
  <variable name="X(55,69,4310)" index="2064631" value="1"/>
  <variable name="X(55,134,4503)" index="2069753" value="1"/>
  <variable name="X(56,15,3509)" index="2073688" value="1"/>
  <variable name="X(56,21,3468)" index="2078576" value="1"/>
  <variable name="X(57,15,3542)" index="2083579" value="1"/>
  <variable name="X(57,136,1444)" index="2086410" value="1"/>
  <variable name="X(58,28,3732)" index="2093627" value="1"/>
  <variable name="X(58,60,1701)" index="2096525" value="1"/>
  <variable name="X(58,137,2402)" index="2102155" value="1"/>
  <variable name="X(59,15,3703)" index="2108385" value="1"/>
  <variable name="X(59,138,3509)" index="2113120" value="1"/>
  <variable name="X(60,15,1701)" index="2116241" value="1"/>
  <variable name="X(60,58,3732)" index="2123201" value="1"/>
  <variable name="X(60,139,4654)" index="2129052" value="1"/>
  <variable name="X(61,62,3812)" index="2133139" value="1"/>
  <variable name="X(61,140,3440)" index="2137696" value="1"/>
  <variable name="X(62,52,3820)" index="2143005" value="1"/>
  <variable name="X(62,61,3440)" index="2147554" value="1"/>
  <variable name="X(62,64,3812)" index="2152855" value="1"/>
  <variable name="X(62,67,4927)" index="2158899" value="1"/>
  <variable name="X(62,79,4060)" index="2162961" value="1"/>
  <variable name="X(62,141,1042)" index="2164872" value="1"/>
  <variable name="X(63,64,3867)" index="2172626" value="1"/>
  <variable name="X(63,65,3887)" index="2177575" value="1"/>
  <variable name="X(63,142,4304)" index="2182921" value="1"/>
  <variable name="X(64,2,3867)" index="2187413" value="1"/>
  <variable name="X(64,6,3321)" index="2191796" value="1"/>
  <variable name="X(64,47,3812)" index="2197216" value="1"/>
  <variable name="X(64,48,3947)" index="2202280" value="1"/>
  <variable name="X(64,62,3440)" index="2206702" value="1"/>
  <variable name="X(64,63,1805)" index="2209996" value="1"/>
  <variable name="X(64,143,2194)" index="2215314" value="1"/>
  <variable name="X(65,34,3887)" index="2221936" value="1"/>
  <variable name="X(65,45,3997)" index="2226975" value="1"/>
  <variable name="X(65,63,4304)" index="2232211" value="1"/>
  <variable name="X(65,144,2195)" index="2235031" value="1"/>
  <variable name="X(66,51,4057)" index="2241822" value="1"/>
  <variable name="X(66,67,4060)" index="2246754" value="1"/>
  <variable name="X(66,145,4660)" index="2252283" value="1"/>
  <variable name="X(67,47,4699)" index="2257251" value="1"/>
  <variable name="X(67,48,4745)" index="2262226" value="1"/>
  <variable name="X(67,62,4060)" index="2266470" value="1"/>
  <variable name="X(67,66,2124)" index="2269463" value="1"/>
  <variable name="X(67,74,4103)" index="2276371" value="1"/>
  <variable name="X(67,77,1936)" index="2279133" value="1"/>
  <variable name="X(67,78,4927)" index="2287053" value="1"/>
  <variable name="X(67,146,1238)" index="2288293" value="1"/>
  <variable name="X(68,14,4153)" index="2296137" value="1"/>
  <variable name="X(68,28,2402)" index="2299315" value="1"/>
  <variable name="X(68,147,1677)" index="2303519" value="1"/>
  <variable name="X(69,9,4194)" index="2310965" value="1"/>
  <variable name="X(69,55,4216)" index="2315916" value="1"/>
  <variable name="X(69,148,708)" index="2317337" value="1"/>
  <variable name="X(70,42,4310)" index="2325868" value="1"/>
  <variable name="X(70,45,4304)" index="2330791" value="1"/>
  <variable name="X(70,149,2200)" index="2333616" value="1"/>
  <variable name="X(71,10,4325)" index="2340670" value="1"/>
  <variable name="X(71,20,4332)" index="2345606" value="1"/>
  <variable name="X(71,150,4444)" index="2350647" value="1"/>
  <variable name="X(72,9,1205)" index="2352337" value="1"/>
  <variable name="X(72,73,4444)" index="2360505" value="1"/>
  <variable name="X(72,151,3521)" index="2364511" value="1"/>
  <variable name="X(73,10,4444)" index="2370363" value="1"/>
  <variable name="X(73,72,1205)" index="2372053" value="1"/>
  <variable name="X(73,152,1578)" index="2377355" value="1"/>
  <variable name="X(74,51,4597)" index="2385303" value="1"/>
  <variable name="X(74,53,4103)" index="2389738" value="1"/>
  <variable name="X(74,67,1238)" index="2391802" value="1"/>
  <variable name="X(74,153,4852)" index="2400345" value="1"/>
  <variable name="X(75,53,4660)" index="2405082" value="1"/>
  <variable name="X(75,154,3379)" index="2408730" value="1"/>
  <variable name="X(76,51,4711)" index="2414991" value="1"/>
  <variable name="X(76,78,4699)" index="2419908" value="1"/>
  <variable name="X(76,155,4057)" index="2424195" value="1"/>
  <variable name="X(77,51,1936)" index="2427003" value="1"/>
  <variable name="X(77,67,4745)" index="2434741" value="1"/>
  <variable name="X(77,156,4711)" index="2439636" value="1"/>
  <variable name="X(78,51,4852)" index="2444706" value="1"/>
  <variable name="X(78,67,4699)" index="2449482" value="1"/>
  <variable name="X(78,76,4927)" index="2454639" value="1"/>
  <variable name="X(78,157,4597)" index="2459238" value="1"/>
  <variable name="X(79,47,4860)" index="2464430" value="1"/>
  <variable name="X(79,62,4927)" index="2469426" value="1"/>
  <variable name="X(79,158,2748)" index="2472176" value="1"/>
 </variables>
</CPLEXSolution>
